NAME : n20w20.004.396.tour
COMMENT : Length = 396
COMMENT : Found by LKH [Keld Helsgaun] Tue May  2 05:18:25 2017
TYPE : TOUR
DIMENSION : 21
TOUR_SECTION
1
12
4
3
20
8
16
10
9
6
7
11
15
5
13
17
19
14
21
18
2
-1
EOF
